NAME          
ROWS
 N  OBJ
 L  c1
 L  c2
 L  c3
 L  c4
 L  c5
COLUMNS
    MARKER    'MARKER'                 'INTORG'
    x[1]      c1        696
    x[1]      c2        495
    x[1]      c3        837
    x[1]      c4        471
    x[1]      c5        722
    x[1]      OBJ       -91
    x[2]      c1        819
    x[2]      c2        729
    x[2]      c3        505
    x[2]      c4        20
    x[2]      c5        463
    x[2]      OBJ       -851
    x[3]      c1        669
    x[3]      c2        557
    x[3]      c3        686
    x[3]      c4        831
    x[3]      c5        557
    x[3]      OBJ       -58
    x[4]      c1        877
    x[4]      c2        931
    x[4]      c3        392
    x[4]      c4        974
    x[4]      c5        523
    x[4]      OBJ       -849
    x[5]      c1        324
    x[5]      c2        336
    x[5]      c3        803
    x[5]      c4        8
    x[5]      c5        598
    x[5]      OBJ       -788
    x[6]      c1        392
    x[6]      c2        7
    x[6]      c3        778
    x[6]      c4        108
    x[6]      c5        221
    x[6]      OBJ       -751
    x[7]      c1        751
    x[7]      c2        285
    x[7]      c3        681
    x[7]      c4        54
    x[7]      c5        406
    x[7]      OBJ       -903
    x[8]      c1        132
    x[8]      c2        760
    x[8]      c3        891
    x[8]      c4        711
    x[8]      c5        482
    x[8]      OBJ       -991
    x[9]      c1        472
    x[9]      c2        229
    x[9]      c3        751
    x[9]      c4        246
    x[9]      c5        118
    x[9]      OBJ       -402
    x[10]     c1        291
    x[10]     c2        157
    x[10]     c3        539
    x[10]     c4        12
    x[10]     c5        921
    x[10]     OBJ       -489
    x[11]     c1        579
    x[11]     c2        552
    x[11]     c3        166
    x[11]     c4        936
    x[11]     c5        80
    x[11]     OBJ       -26
    x[12]     c1        245
    x[12]     c2        568
    x[12]     c3        854
    x[12]     c4        223
    x[12]     c5        302
    x[12]     OBJ       -36
    x[13]     c1        317
    x[13]     c2        894
    x[13]     c3        470
    x[13]     c4        863
    x[13]     c5        453
    x[13]     OBJ       -99
    x[14]     c1        198
    x[14]     c2        957
    x[14]     c3        865
    x[14]     c4        245
    x[14]     c5        328
    x[14]     OBJ       -430
    x[15]     c1        488
    x[15]     c2        404
    x[15]     c3        619
    x[15]     c4        304
    x[15]     c5        199
    x[15]     OBJ       -349
    x[16]     c1        86
    x[16]     c2        267
    x[16]     c3        172
    x[16]     c4        413
    x[16]     c5        285
    x[16]     OBJ       -27
    x[17]     c1        273
    x[17]     c2        177
    x[17]     c3        215
    x[17]     c4        86
    x[17]     c5        355
    x[17]     OBJ       -307
    x[18]     c1        284
    x[18]     c2        338
    x[18]     c3        124
    x[18]     c4        369
    x[18]     c5        833
    x[18]     OBJ       -153
    x[19]     c1        941
    x[19]     c2        234
    x[19]     c3        900
    x[19]     c4        241
    x[19]     c5        197
    x[19]     OBJ       -278
    x[20]     c1        386
    x[20]     c2        684
    x[20]     c3        511
    x[20]     c4        842
    x[20]     c5        89
    x[20]     OBJ       -496
    x[21]     c1        898
    x[21]     c2        655
    x[21]     c3        33
    x[21]     c4        849
    x[21]     c5        5
    x[21]     OBJ       -6
    x[22]     c1        237
    x[22]     c2        947
    x[22]     c3        712
    x[22]     c4        82
    x[22]     c5        979
    x[22]     OBJ       -465
    x[23]     c1        836
    x[23]     c2        366
    x[23]     c3        605
    x[23]     c4        843
    x[23]     c5        452
    x[23]     OBJ       -303
    x[24]     c1        768
    x[24]     c2        867
    x[24]     c3        17
    x[24]     c4        58
    x[24]     c5        631
    x[24]     OBJ       -686
    x[25]     c1        267
    x[25]     c2        711
    x[25]     c3        37
    x[25]     c4        78
    x[25]     c5        671
    x[25]     OBJ       -119
    x[26]     c1        652
    x[26]     c2        628
    x[26]     c3        127
    x[26]     c4        851
    x[26]     c5        195
    x[26]     OBJ       -246
    x[27]     c1        878
    x[27]     c2        838
    x[27]     c3        126
    x[27]     c4        460
    x[27]     c5        291
    x[27]     OBJ       -346
    x[28]     c1        758
    x[28]     c2        206
    x[28]     c3        61
    x[28]     c4        310
    x[28]     c5        638
    x[28]     OBJ       -920
    x[29]     c1        955
    x[29]     c2        577
    x[29]     c3        73
    x[29]     c4        445
    x[29]     c5        797
    x[29]     OBJ       -542
    x[30]     c1        205
    x[30]     c2        8
    x[30]     c3        765
    x[30]     c4        271
    x[30]     c5        608
    x[30]     OBJ       -308
    x[31]     c1        150
    x[31]     c2        108
    x[31]     c3        687
    x[31]     c4        477
    x[31]     c5        904
    x[31]     OBJ       -792
    x[32]     c1        643
    x[32]     c2        553
    x[32]     c3        239
    x[32]     c4        900
    x[32]     c5        40
    x[32]     OBJ       -315
    x[33]     c1        815
    x[33]     c2        790
    x[33]     c3        732
    x[33]     c4        495
    x[33]     c5        501
    x[33]     OBJ       -945
    x[34]     c1        852
    x[34]     c2        453
    x[34]     c3        279
    x[34]     c4        229
    x[34]     c5        90
    x[34]     OBJ       -168
    x[35]     c1        764
    x[35]     c2        431
    x[35]     c3        399
    x[35]     c4        798
    x[35]     c5        529
    x[35]     OBJ       -588
    x[36]     c1        719
    x[36]     c2        397
    x[36]     c3        400
    x[36]     c4        313
    x[36]     c5        666
    x[36]     OBJ       -730
    x[37]     c1        390
    x[37]     c2        897
    x[37]     c3        187
    x[37]     c4        78
    x[37]     c5        373
    x[37]     OBJ       -167
    x[38]     c1        173
    x[38]     c2        67
    x[38]     c3        901
    x[38]     c4        782
    x[38]     c5        475
    x[38]     OBJ       -616
    x[39]     c1        111
    x[39]     c2        570
    x[39]     c3        867
    x[39]     c4        336
    x[39]     c5        148
    x[39]     OBJ       -716
    x[40]     c1        853
    x[40]     c2        455
    x[40]     c3        436
    x[40]     c4        253
    x[40]     c5        306
    x[40]     OBJ       -850
    x[41]     c1        648
    x[41]     c2        205
    x[41]     c3        812
    x[41]     c4        817
    x[41]     c5        798
    x[41]     OBJ       -998
    x[42]     c1        199
    x[42]     c2        294
    x[42]     c3        216
    x[42]     c4        419
    x[42]     c5        314
    x[42]     OBJ       -493
    x[43]     c1        82
    x[43]     c2        475
    x[43]     c3        625
    x[43]     c4        216
    x[43]     c5        119
    x[43]     OBJ       -581
    x[44]     c1        624
    x[44]     c2        590
    x[44]     c3        566
    x[44]     c4        191
    x[44]     c5        980
    x[44]     OBJ       -158
    x[45]     c1        378
    x[45]     c2        589
    x[45]     c3        533
    x[45]     c4        145
    x[45]     c5        763
    x[45]     OBJ       -483
RHS
    rhs       c1        11538
    rhs       c2        11119
    rhs       c3        11097
    rhs       c4        9326
    rhs       c5        10202
RANGES
BOUNDS
 BV bounds    x[1]
 BV bounds    x[2]
 BV bounds    x[3]
 BV bounds    x[4]
 BV bounds    x[5]
 BV bounds    x[6]
 BV bounds    x[7]
 BV bounds    x[8]
 BV bounds    x[9]
 BV bounds    x[10]
 BV bounds    x[11]
 BV bounds    x[12]
 BV bounds    x[13]
 BV bounds    x[14]
 BV bounds    x[15]
 BV bounds    x[16]
 BV bounds    x[17]
 BV bounds    x[18]
 BV bounds    x[19]
 BV bounds    x[20]
 BV bounds    x[21]
 BV bounds    x[22]
 BV bounds    x[23]
 BV bounds    x[24]
 BV bounds    x[25]
 BV bounds    x[26]
 BV bounds    x[27]
 BV bounds    x[28]
 BV bounds    x[29]
 BV bounds    x[30]
 BV bounds    x[31]
 BV bounds    x[32]
 BV bounds    x[33]
 BV bounds    x[34]
 BV bounds    x[35]
 BV bounds    x[36]
 BV bounds    x[37]
 BV bounds    x[38]
 BV bounds    x[39]
 BV bounds    x[40]
 BV bounds    x[41]
 BV bounds    x[42]
 BV bounds    x[43]
 BV bounds    x[44]
 BV bounds    x[45]
ENDATA
